c This graph is produced by Sof A. Lee
c Experiment on graph colouring using phase coupled oscillators
c Date: 17/02/2008 11:42:14 PM
p edge 12 36
e 1 4
e 1 8
e 1 7
e 1 9
e 1 12
e 1 11
e 2 4
e 2 7
e 2 12
e 2 8
e 2 11
e 2 9
e 3 4
e 3 8
e 3 9
e 3 11
e 3 12
e 3 7
e 4 5
e 4 6
e 4 10
e 5 11
e 5 12
e 5 8
e 5 9
e 5 7
e 6 9
e 6 12
e 6 11
e 6 7
e 6 8
e 7 10
e 8 10
e 9 10
e 10 11
e 10 12
